/*********************************************
 * OPL 12.6.0.0 Data
 * Author: Adrian Rodriguez Bazaga, Pau Rodriguez Esmerats
 * Creation Date: 06/12/2017 at 23:03:05
 *********************************************/

nNurses=246;
maxConsec=2;
maxPresence=7;
maxHours=5;
minHours=1;
hours=24;
demand= [46 41 52 59 41 52 59 43 31 15 4 5 5 7 5 5 4 5 1 2 35 72 37 57  ];
